p cnf 10 40
-10 9 -4 2 0
6 7 0
4 1 10 8 0
8 5 0
6 -9 7 0
10 6 0
10 2 -3 0
8 -3 -2 -4 0
-9 8 -6 0
4 -7 9 -3 2 0
-8 -7 5 0
5 -7 -1 0
10 7 0
3 7 0
-2 -4 -1 0
10 3 -1 -8 -6 -9 0
-7 9 4 0
4 7 -1 0
-10 8 4 2 -1 -7 0
5 -7 6 0
7 3 6 -9 0
-5 6 -10 -3 -8 4 0
8 9 10 0
-4 -8 -9 -7 0
-4 -7 0
6 -4 7 8 0
-7 9 -10 4 2 -1 0
-4 3 10 -1 9 -7 8 0
-4 5 9 -10 7 0
2 -7 -5 -1 0
-3 -4 5 -1 10 7 0
-2 1 3 7 4 8 -5 0
-3 -6 -9 0
4 -3 -8 0
-3 6 -8 -7 0
-1 -3 9 0
-8 -3 0
-2 5 -8 0
8 -1 10 0
-4 -5 0
